50
15720

483 137
559 492
556 366
656 886
32 581
294 692
835 359
899 294
784 573
431 222
653 32
142 705
728 633
105 267
35 267
37 584
525 180
458 931
737 463
797 788
600 143
859 407
704 748
483 270
124 664
151 555
156 72
46 483
379 981
173 167
929 90
796 455
2 742
429 697
902 937
110 449
299 503
204 633
985 370
669 628
267 1000
862 338
845 495
912 482
96 726
309 116
740 977
426 665
895 904
606 59
